; benchmark generated from python API
(set-info :status unknown)
(declare-fun cell_1_3 () Int)
(declare-fun cell_1_4 () Int)
(declare-fun cell_2_1 () Int)
(declare-fun cell_2_5 () Int)
(declare-fun cell_3_7 () Int)
(declare-fun cell_3_8 () Int)
(declare-fun cell_4_6 () Int)
(declare-fun cell_5_9 () Int)
(declare-fun cell_6_2 () Int)
(declare-fun cell_7_5 () Int)
(declare-fun cell_8_8 () Int)
(declare-fun cell_9_3 () Int)
(declare-fun cell_1_1 () Int)
(declare-fun cell_3_1 () Int)
(declare-fun cell_4_1 () Int)
(declare-fun cell_5_1 () Int)
(declare-fun cell_6_1 () Int)
(declare-fun cell_7_1 () Int)
(declare-fun cell_8_1 () Int)
(declare-fun cell_9_1 () Int)
(declare-fun cell_1_2 () Int)
(declare-fun cell_2_2 () Int)
(declare-fun cell_3_2 () Int)
(declare-fun cell_4_2 () Int)
(declare-fun cell_5_2 () Int)
(declare-fun cell_7_2 () Int)
(declare-fun cell_8_2 () Int)
(declare-fun cell_9_2 () Int)
(declare-fun cell_2_3 () Int)
(declare-fun cell_3_3 () Int)
(declare-fun cell_4_3 () Int)
(declare-fun cell_5_3 () Int)
(declare-fun cell_6_3 () Int)
(declare-fun cell_7_3 () Int)
(declare-fun cell_8_3 () Int)
(declare-fun cell_2_4 () Int)
(declare-fun cell_3_4 () Int)
(declare-fun cell_4_4 () Int)
(declare-fun cell_5_4 () Int)
(declare-fun cell_6_4 () Int)
(declare-fun cell_7_4 () Int)
(declare-fun cell_8_4 () Int)
(declare-fun cell_9_4 () Int)
(declare-fun cell_1_5 () Int)
(declare-fun cell_3_5 () Int)
(declare-fun cell_4_5 () Int)
(declare-fun cell_5_5 () Int)
(declare-fun cell_6_5 () Int)
(declare-fun cell_8_5 () Int)
(declare-fun cell_9_5 () Int)
(declare-fun cell_1_6 () Int)
(declare-fun cell_2_6 () Int)
(declare-fun cell_3_6 () Int)
(declare-fun cell_5_6 () Int)
(declare-fun cell_6_6 () Int)
(declare-fun cell_7_6 () Int)
(declare-fun cell_8_6 () Int)
(declare-fun cell_9_6 () Int)
(declare-fun cell_1_7 () Int)
(declare-fun cell_2_7 () Int)
(declare-fun cell_4_7 () Int)
(declare-fun cell_5_7 () Int)
(declare-fun cell_6_7 () Int)
(declare-fun cell_7_7 () Int)
(declare-fun cell_8_7 () Int)
(declare-fun cell_9_7 () Int)
(declare-fun cell_1_8 () Int)
(declare-fun cell_2_8 () Int)
(declare-fun cell_4_8 () Int)
(declare-fun cell_5_8 () Int)
(declare-fun cell_6_8 () Int)
(declare-fun cell_7_8 () Int)
(declare-fun cell_9_8 () Int)
(declare-fun cell_1_9 () Int)
(declare-fun cell_2_9 () Int)
(declare-fun cell_3_9 () Int)
(declare-fun cell_4_9 () Int)
(declare-fun cell_6_9 () Int)
(declare-fun cell_7_9 () Int)
(declare-fun cell_8_9 () Int)
(declare-fun cell_9_9 () Int)
(assert
 (= cell_1_3 2))
(assert
 (= cell_1_4 1))
(assert
 (= cell_2_1 1))
(assert
 (= cell_2_5 2))
(assert
 (= cell_3_7 1))
(assert
 (= cell_3_8 2))
(assert
 (= cell_4_6 1))
(assert
 (= cell_5_9 1))
(assert
 (= cell_6_2 1))
(assert
 (= cell_7_5 1))
(assert
 (= cell_8_8 1))
(assert
 (= cell_9_3 1))
(assert
 (let (($x8909 (= cell_1_1 9)))
 (let (($x10034 (= cell_1_1 8)))
 (let (($x8396 (= cell_1_1 7)))
 (let (($x9788 (= cell_1_1 6)))
 (let (($x9517 (= cell_1_1 5)))
 (let (($x7929 (= cell_1_1 4)))
 (let (($x7229 (= cell_1_1 3)))
 (let (($x8863 (= cell_1_1 2)))
 (let (($x7153 (= cell_1_1 1)))
 (or $x7153 $x8863 $x7229 $x7929 $x9517 $x9788 $x8396 $x10034 $x8909)))))))))))
(assert
 (let (($x10258 (= cell_2_1 1)))
 (or $x10258 (= cell_2_1 2) (= cell_2_1 3) (= cell_2_1 4) (= cell_2_1 5) (= cell_2_1 6) (= cell_2_1 7) (= cell_2_1 8) (= cell_2_1 9))))
(assert
 (let (($x7495 (= cell_3_1 9)))
 (let (($x3167 (= cell_3_1 8)))
 (let (($x9594 (= cell_3_1 7)))
 (let (($x6947 (= cell_3_1 6)))
 (let (($x7016 (= cell_3_1 5)))
 (let (($x3208 (= cell_3_1 4)))
 (let (($x298 (= cell_3_1 3)))
 (let (($x6817 (= cell_3_1 2)))
 (let (($x10012 (= cell_3_1 1)))
 (or $x10012 $x6817 $x298 $x3208 $x7016 $x6947 $x9594 $x3167 $x7495)))))))))))
(assert
 (let (($x5596 (= cell_4_1 9)))
 (let (($x8594 (= cell_4_1 8)))
 (let (($x9690 (= cell_4_1 7)))
 (let (($x3261 (= cell_4_1 6)))
 (let (($x8139 (= cell_4_1 5)))
 (let (($x7703 (= cell_4_1 4)))
 (let (($x5859 (= cell_4_1 3)))
 (let (($x4632 (= cell_4_1 2)))
 (let (($x8474 (= cell_4_1 1)))
 (or $x8474 $x4632 $x5859 $x7703 $x8139 $x3261 $x9690 $x8594 $x5596)))))))))))
(assert
 (let (($x1629 (= cell_5_1 9)))
 (let (($x4218 (= cell_5_1 8)))
 (let (($x2916 (= cell_5_1 7)))
 (let (($x4888 (= cell_5_1 6)))
 (let (($x3646 (= cell_5_1 5)))
 (let (($x8926 (= cell_5_1 4)))
 (let (($x1189 (= cell_5_1 3)))
 (let (($x5548 (= cell_5_1 2)))
 (let (($x4263 (= cell_5_1 1)))
 (or $x4263 $x5548 $x1189 $x8926 $x3646 $x4888 $x2916 $x4218 $x1629)))))))))))
(assert
 (let (($x3333 (= cell_6_1 9)))
 (let (($x7370 (= cell_6_1 8)))
 (let (($x7934 (= cell_6_1 7)))
 (let (($x7916 (= cell_6_1 6)))
 (let (($x9524 (= cell_6_1 5)))
 (let (($x8393 (= cell_6_1 4)))
 (let (($x192 (= cell_6_1 3)))
 (let (($x1798 (= cell_6_1 2)))
 (let (($x373 (= cell_6_1 1)))
 (or $x373 $x1798 $x192 $x8393 $x9524 $x7916 $x7934 $x7370 $x3333)))))))))))
(assert
 (let (($x3935 (= cell_7_1 9)))
 (let (($x6137 (= cell_7_1 8)))
 (let (($x2787 (= cell_7_1 7)))
 (let (($x7698 (= cell_7_1 6)))
 (let (($x9978 (= cell_7_1 5)))
 (let (($x2986 (= cell_7_1 4)))
 (let (($x3922 (= cell_7_1 3)))
 (let (($x8079 (= cell_7_1 2)))
 (let (($x9679 (= cell_7_1 1)))
 (or $x9679 $x8079 $x3922 $x2986 $x9978 $x7698 $x2787 $x6137 $x3935)))))))))))
(assert
 (let (($x8941 (= cell_8_1 9)))
 (let (($x3840 (= cell_8_1 8)))
 (let (($x8820 (= cell_8_1 7)))
 (let (($x8824 (= cell_8_1 6)))
 (let (($x9287 (= cell_8_1 5)))
 (let (($x8206 (= cell_8_1 4)))
 (let (($x7924 (= cell_8_1 3)))
 (let (($x6972 (= cell_8_1 2)))
 (let (($x914 (= cell_8_1 1)))
 (or $x914 $x6972 $x7924 $x8206 $x9287 $x8824 $x8820 $x3840 $x8941)))))))))))
(assert
 (let (($x8819 (= cell_9_1 9)))
 (let (($x5334 (= cell_9_1 8)))
 (let (($x5349 (= cell_9_1 7)))
 (let (($x3587 (= cell_9_1 6)))
 (let (($x2571 (= cell_9_1 5)))
 (let (($x2580 (= cell_9_1 4)))
 (let (($x2364 (= cell_9_1 3)))
 (let (($x2257 (= cell_9_1 2)))
 (let (($x4698 (= cell_9_1 1)))
 (or $x4698 $x2257 $x2364 $x2580 $x2571 $x3587 $x5349 $x5334 $x8819)))))))))))
(assert
 (let (($x5964 (= cell_1_2 9)))
 (let (($x6238 (= cell_1_2 8)))
 (let (($x8837 (= cell_1_2 7)))
 (let (($x7638 (= cell_1_2 6)))
 (let (($x3695 (= cell_1_2 5)))
 (let (($x1297 (= cell_1_2 4)))
 (let (($x626 (= cell_1_2 3)))
 (let (($x3674 (= cell_1_2 2)))
 (let (($x5070 (= cell_1_2 1)))
 (or $x5070 $x3674 $x626 $x1297 $x3695 $x7638 $x8837 $x6238 $x5964)))))))))))
(assert
 (let (($x1172 (= cell_2_2 9)))
 (let (($x4650 (= cell_2_2 8)))
 (let (($x5755 (= cell_2_2 7)))
 (let (($x8422 (= cell_2_2 6)))
 (let (($x6496 (= cell_2_2 5)))
 (let (($x9062 (= cell_2_2 4)))
 (let (($x6958 (= cell_2_2 3)))
 (let (($x7137 (= cell_2_2 2)))
 (let (($x4028 (= cell_2_2 1)))
 (or $x4028 $x7137 $x6958 $x9062 $x6496 $x8422 $x5755 $x4650 $x1172)))))))))))
(assert
 (let (($x5658 (= cell_3_2 9)))
 (let (($x7510 (= cell_3_2 8)))
 (let (($x5188 (= cell_3_2 7)))
 (let (($x8773 (= cell_3_2 6)))
 (let (($x1094 (= cell_3_2 5)))
 (let (($x9343 (= cell_3_2 4)))
 (let (($x2351 (= cell_3_2 3)))
 (let (($x4754 (= cell_3_2 2)))
 (let (($x5232 (= cell_3_2 1)))
 (or $x5232 $x4754 $x2351 $x9343 $x1094 $x8773 $x5188 $x7510 $x5658)))))))))))
(assert
 (let (($x1357 (= cell_4_2 9)))
 (let (($x9749 (= cell_4_2 8)))
 (let (($x1825 (= cell_4_2 7)))
 (let (($x578 (= cell_4_2 6)))
 (let (($x3725 (= cell_4_2 5)))
 (let (($x7479 (= cell_4_2 4)))
 (let (($x4014 (= cell_4_2 3)))
 (let (($x2244 (= cell_4_2 2)))
 (let (($x8515 (= cell_4_2 1)))
 (or $x8515 $x2244 $x4014 $x7479 $x3725 $x578 $x1825 $x9749 $x1357)))))))))))
(assert
 (let (($x5799 (= cell_5_2 9)))
 (let (($x7544 (= cell_5_2 8)))
 (let (($x8480 (= cell_5_2 7)))
 (let (($x9234 (= cell_5_2 6)))
 (let (($x8034 (= cell_5_2 5)))
 (let (($x4386 (= cell_5_2 4)))
 (let (($x8272 (= cell_5_2 3)))
 (let (($x6154 (= cell_5_2 2)))
 (let (($x4712 (= cell_5_2 1)))
 (or $x4712 $x6154 $x8272 $x4386 $x8034 $x9234 $x8480 $x7544 $x5799)))))))))))
(assert
 (let (($x615 (= cell_6_2 1)))
 (or $x615 (= cell_6_2 2) (= cell_6_2 3) (= cell_6_2 4) (= cell_6_2 5) (= cell_6_2 6) (= cell_6_2 7) (= cell_6_2 8) (= cell_6_2 9))))
(assert
 (let (($x5934 (= cell_7_2 9)))
 (let (($x3907 (= cell_7_2 8)))
 (let (($x9446 (= cell_7_2 7)))
 (let (($x1487 (= cell_7_2 6)))
 (let (($x481 (= cell_7_2 5)))
 (let (($x6325 (= cell_7_2 4)))
 (let (($x2057 (= cell_7_2 3)))
 (let (($x1930 (= cell_7_2 2)))
 (let (($x9812 (= cell_7_2 1)))
 (or $x9812 $x1930 $x2057 $x6325 $x481 $x1487 $x9446 $x3907 $x5934)))))))))))
(assert
 (let (($x5931 (= cell_8_2 9)))
 (let (($x7437 (= cell_8_2 8)))
 (let (($x7112 (= cell_8_2 7)))
 (let (($x2886 (= cell_8_2 6)))
 (let (($x8355 (= cell_8_2 5)))
 (let (($x4397 (= cell_8_2 4)))
 (let (($x5017 (= cell_8_2 3)))
 (let (($x8858 (= cell_8_2 2)))
 (let (($x1440 (= cell_8_2 1)))
 (or $x1440 $x8858 $x5017 $x4397 $x8355 $x2886 $x7112 $x7437 $x5931)))))))))))
(assert
 (let (($x8152 (= cell_9_2 9)))
 (let (($x6708 (= cell_9_2 8)))
 (let (($x2119 (= cell_9_2 7)))
 (let (($x2046 (= cell_9_2 6)))
 (let (($x8916 (= cell_9_2 5)))
 (let (($x4726 (= cell_9_2 4)))
 (let (($x2780 (= cell_9_2 3)))
 (let (($x1158 (= cell_9_2 2)))
 (let (($x10188 (= cell_9_2 1)))
 (or $x10188 $x1158 $x2780 $x4726 $x8916 $x2046 $x2119 $x6708 $x8152)))))))))))
(assert
 (let (($x6143 (= cell_1_3 2)))
 (or (= cell_1_3 1) $x6143 (= cell_1_3 3) (= cell_1_3 4) (= cell_1_3 5) (= cell_1_3 6) (= cell_1_3 7) (= cell_1_3 8) (= cell_1_3 9))))
(assert
 (let (($x409 (= cell_2_3 9)))
 (let (($x6487 (= cell_2_3 8)))
 (let (($x2458 (= cell_2_3 7)))
 (let (($x4536 (= cell_2_3 6)))
 (let (($x4653 (= cell_2_3 5)))
 (let (($x10044 (= cell_2_3 4)))
 (let (($x2763 (= cell_2_3 3)))
 (let (($x6457 (= cell_2_3 2)))
 (let (($x1022 (= cell_2_3 1)))
 (or $x1022 $x6457 $x2763 $x10044 $x4653 $x4536 $x2458 $x6487 $x409)))))))))))
(assert
 (let (($x3456 (= cell_3_3 9)))
 (let (($x3650 (= cell_3_3 8)))
 (let (($x3715 (= cell_3_3 7)))
 (let (($x3241 (= cell_3_3 6)))
 (let (($x726 (= cell_3_3 5)))
 (let (($x10129 (= cell_3_3 4)))
 (let (($x9056 (= cell_3_3 3)))
 (let (($x8624 (= cell_3_3 2)))
 (let (($x9709 (= cell_3_3 1)))
 (or $x9709 $x8624 $x9056 $x10129 $x726 $x3241 $x3715 $x3650 $x3456)))))))))))
(assert
 (let (($x1508 (= cell_4_3 9)))
 (let (($x6823 (= cell_4_3 8)))
 (let (($x1280 (= cell_4_3 7)))
 (let (($x989 (= cell_4_3 6)))
 (let (($x3909 (= cell_4_3 5)))
 (let (($x3962 (= cell_4_3 4)))
 (let (($x7819 (= cell_4_3 3)))
 (let (($x3358 (= cell_4_3 2)))
 (let (($x1072 (= cell_4_3 1)))
 (or $x1072 $x3358 $x7819 $x3962 $x3909 $x989 $x1280 $x6823 $x1508)))))))))))
(assert
 (let (($x9305 (= cell_5_3 9)))
 (let (($x7348 (= cell_5_3 8)))
 (let (($x7967 (= cell_5_3 7)))
 (let (($x5564 (= cell_5_3 6)))
 (let (($x8114 (= cell_5_3 5)))
 (let (($x1187 (= cell_5_3 4)))
 (let (($x3669 (= cell_5_3 3)))
 (let (($x6912 (= cell_5_3 2)))
 (let (($x7659 (= cell_5_3 1)))
 (or $x7659 $x6912 $x3669 $x1187 $x8114 $x5564 $x7967 $x7348 $x9305)))))))))))
(assert
 (let (($x7797 (= cell_6_3 9)))
 (let (($x2920 (= cell_6_3 8)))
 (let (($x9634 (= cell_6_3 7)))
 (let (($x6492 (= cell_6_3 6)))
 (let (($x5105 (= cell_6_3 5)))
 (let (($x2421 (= cell_6_3 4)))
 (let (($x6467 (= cell_6_3 3)))
 (let (($x4289 (= cell_6_3 2)))
 (let (($x2578 (= cell_6_3 1)))
 (or $x2578 $x4289 $x6467 $x2421 $x5105 $x6492 $x9634 $x2920 $x7797)))))))))))
(assert
 (let (($x1054 (= cell_7_3 9)))
 (let (($x8495 (= cell_7_3 8)))
 (let (($x2357 (= cell_7_3 7)))
 (let (($x1102 (= cell_7_3 6)))
 (let (($x5400 (= cell_7_3 5)))
 (let (($x6665 (= cell_7_3 4)))
 (let (($x1319 (= cell_7_3 3)))
 (let (($x4366 (= cell_7_3 2)))
 (let (($x5417 (= cell_7_3 1)))
 (or $x5417 $x4366 $x1319 $x6665 $x5400 $x1102 $x2357 $x8495 $x1054)))))))))))
(assert
 (let (($x2121 (= cell_8_3 9)))
 (let (($x7845 (= cell_8_3 8)))
 (let (($x3268 (= cell_8_3 7)))
 (let (($x3910 (= cell_8_3 6)))
 (let (($x3610 (= cell_8_3 5)))
 (let (($x3190 (= cell_8_3 4)))
 (let (($x832 (= cell_8_3 3)))
 (let (($x4618 (= cell_8_3 2)))
 (let (($x2417 (= cell_8_3 1)))
 (or $x2417 $x4618 $x832 $x3190 $x3610 $x3910 $x3268 $x7845 $x2121)))))))))))
(assert
 (let (($x3705 (= cell_9_3 1)))
 (or $x3705 (= cell_9_3 2) (= cell_9_3 3) (= cell_9_3 4) (= cell_9_3 5) (= cell_9_3 6) (= cell_9_3 7) (= cell_9_3 8) (= cell_9_3 9))))
(assert
 (let (($x1727 (= cell_1_4 1)))
 (or $x1727 (= cell_1_4 2) (= cell_1_4 3) (= cell_1_4 4) (= cell_1_4 5) (= cell_1_4 6) (= cell_1_4 7) (= cell_1_4 8) (= cell_1_4 9))))
(assert
 (let (($x3383 (= cell_2_4 9)))
 (let (($x8838 (= cell_2_4 8)))
 (let (($x5306 (= cell_2_4 7)))
 (let (($x4088 (= cell_2_4 6)))
 (let (($x1834 (= cell_2_4 5)))
 (let (($x9442 (= cell_2_4 4)))
 (let (($x2062 (= cell_2_4 3)))
 (let (($x1751 (= cell_2_4 2)))
 (let (($x4893 (= cell_2_4 1)))
 (or $x4893 $x1751 $x2062 $x9442 $x1834 $x4088 $x5306 $x8838 $x3383)))))))))))
(assert
 (let (($x3698 (= cell_3_4 9)))
 (let (($x9892 (= cell_3_4 8)))
 (let (($x8185 (= cell_3_4 7)))
 (let (($x23 (= cell_3_4 6)))
 (let (($x699 (= cell_3_4 5)))
 (let (($x5960 (= cell_3_4 4)))
 (let (($x859 (= cell_3_4 3)))
 (let (($x2424 (= cell_3_4 2)))
 (let (($x3050 (= cell_3_4 1)))
 (or $x3050 $x2424 $x859 $x5960 $x699 $x23 $x8185 $x9892 $x3698)))))))))))
(assert
 (let (($x147 (= cell_4_4 9)))
 (let (($x8443 (= cell_4_4 8)))
 (let (($x8456 (= cell_4_4 7)))
 (let (($x8549 (= cell_4_4 6)))
 (let (($x5496 (= cell_4_4 5)))
 (let (($x9571 (= cell_4_4 4)))
 (let (($x7859 (= cell_4_4 3)))
 (let (($x9957 (= cell_4_4 2)))
 (let (($x8227 (= cell_4_4 1)))
 (or $x8227 $x9957 $x7859 $x9571 $x5496 $x8549 $x8456 $x8443 $x147)))))))))))
(assert
 (let (($x6826 (= cell_5_4 9)))
 (let (($x1331 (= cell_5_4 8)))
 (let (($x7001 (= cell_5_4 7)))
 (let (($x9434 (= cell_5_4 6)))
 (let (($x1450 (= cell_5_4 5)))
 (let (($x3284 (= cell_5_4 4)))
 (let (($x2593 (= cell_5_4 3)))
 (let (($x5683 (= cell_5_4 2)))
 (let (($x2410 (= cell_5_4 1)))
 (or $x2410 $x5683 $x2593 $x3284 $x1450 $x9434 $x7001 $x1331 $x6826)))))))))))
(assert
 (let (($x3157 (= cell_6_4 1)))
 (or $x3157 (= cell_6_4 2) (= cell_6_4 3) (= cell_6_4 4) (= cell_6_4 5) (= cell_6_4 6) (= cell_6_4 7) (= cell_6_4 8) (= cell_6_4 9))))
(assert
 (let (($x4240 (= cell_7_4 9)))
 (let (($x3289 (= cell_7_4 8)))
 (let (($x5434 (= cell_7_4 7)))
 (let (($x2819 (= cell_7_4 6)))
 (let (($x6732 (= cell_7_4 5)))
 (let (($x9219 (= cell_7_4 4)))
 (let (($x828 (= cell_7_4 3)))
 (let (($x5645 (= cell_7_4 2)))
 (let (($x10218 (= cell_7_4 1)))
 (or $x10218 $x5645 $x828 $x9219 $x6732 $x2819 $x5434 $x3289 $x4240)))))))))))
(assert
 (let (($x1827 (= cell_8_4 9)))
 (let (($x5907 (= cell_8_4 8)))
 (let (($x1784 (= cell_8_4 7)))
 (let (($x4846 (= cell_8_4 6)))
 (let (($x106 (= cell_8_4 5)))
 (let (($x6034 (= cell_8_4 4)))
 (let (($x8287 (= cell_8_4 3)))
 (let (($x8469 (= cell_8_4 2)))
 (let (($x5759 (= cell_8_4 1)))
 (or $x5759 $x8469 $x8287 $x6034 $x106 $x4846 $x1784 $x5907 $x1827)))))))))))
(assert
 (let (($x2656 (= cell_9_4 1)))
 (or $x2656 (= cell_9_4 2) (= cell_9_4 3) (= cell_9_4 4) (= cell_9_4 5) (= cell_9_4 6) (= cell_9_4 7) (= cell_9_4 8) (= cell_9_4 9))))
(assert
 (let (($x1878 (= cell_1_5 9)))
 (let (($x6914 (= cell_1_5 8)))
 (let (($x8715 (= cell_1_5 7)))
 (let (($x7218 (= cell_1_5 6)))
 (let (($x1037 (= cell_1_5 5)))
 (let (($x682 (= cell_1_5 4)))
 (let (($x7801 (= cell_1_5 3)))
 (let (($x9323 (= cell_1_5 2)))
 (let (($x5777 (= cell_1_5 1)))
 (or $x5777 $x9323 $x7801 $x682 $x1037 $x7218 $x8715 $x6914 $x1878)))))))))))
(assert
 (let (($x8528 (= cell_2_5 2)))
 (or (= cell_2_5 1) $x8528 (= cell_2_5 3) (= cell_2_5 4) (= cell_2_5 5) (= cell_2_5 6) (= cell_2_5 7) (= cell_2_5 8) (= cell_2_5 9))))
(assert
 (let (($x4328 (= cell_3_5 9)))
 (let (($x8303 (= cell_3_5 8)))
 (let (($x8208 (= cell_3_5 7)))
 (let (($x2996 (= cell_3_5 6)))
 (let (($x1240 (= cell_3_5 5)))
 (let (($x7865 (= cell_3_5 4)))
 (let (($x5955 (= cell_3_5 3)))
 (let (($x3203 (= cell_3_5 2)))
 (let (($x861 (= cell_3_5 1)))
 (or $x861 $x3203 $x5955 $x7865 $x1240 $x2996 $x8208 $x8303 $x4328)))))))))))
(assert
 (let (($x5642 (= cell_4_5 9)))
 (let (($x5505 (= cell_4_5 8)))
 (let (($x308 (= cell_4_5 7)))
 (let (($x8052 (= cell_4_5 6)))
 (let (($x2879 (= cell_4_5 5)))
 (let (($x9282 (= cell_4_5 4)))
 (let (($x3176 (= cell_4_5 3)))
 (let (($x9015 (= cell_4_5 2)))
 (let (($x8692 (= cell_4_5 1)))
 (or $x8692 $x9015 $x3176 $x9282 $x2879 $x8052 $x308 $x5505 $x5642)))))))))))
(assert
 (let (($x5485 (= cell_5_5 9)))
 (let (($x9632 (= cell_5_5 8)))
 (let (($x49 (= cell_5_5 7)))
 (let (($x2518 (= cell_5_5 6)))
 (let (($x3256 (= cell_5_5 5)))
 (let (($x7244 (= cell_5_5 4)))
 (let (($x312 (= cell_5_5 3)))
 (let (($x2076 (= cell_5_5 2)))
 (let (($x2660 (= cell_5_5 1)))
 (or $x2660 $x2076 $x312 $x7244 $x3256 $x2518 $x49 $x9632 $x5485)))))))))))
(assert
 (let (($x8497 (= cell_6_5 9)))
 (let (($x7151 (= cell_6_5 8)))
 (let (($x7368 (= cell_6_5 7)))
 (let (($x3713 (= cell_6_5 6)))
 (let (($x8973 (= cell_6_5 5)))
 (let (($x2665 (= cell_6_5 4)))
 (let (($x9460 (= cell_6_5 3)))
 (let (($x3461 (= cell_6_5 2)))
 (let (($x4371 (= cell_6_5 1)))
 (or $x4371 $x3461 $x9460 $x2665 $x8973 $x3713 $x7368 $x7151 $x8497)))))))))))
(assert
 (let (($x9408 (= cell_7_5 1)))
 (or $x9408 (= cell_7_5 2) (= cell_7_5 3) (= cell_7_5 4) (= cell_7_5 5) (= cell_7_5 6) (= cell_7_5 7) (= cell_7_5 8) (= cell_7_5 9))))
(assert
 (let (($x8784 (= cell_8_5 9)))
 (let (($x2382 (= cell_8_5 8)))
 (let (($x4732 (= cell_8_5 7)))
 (let (($x1370 (= cell_8_5 6)))
 (let (($x6307 (= cell_8_5 5)))
 (let (($x7297 (= cell_8_5 4)))
 (let (($x857 (= cell_8_5 3)))
 (let (($x8299 (= cell_8_5 2)))
 (let (($x1553 (= cell_8_5 1)))
 (or $x1553 $x8299 $x857 $x7297 $x6307 $x1370 $x4732 $x2382 $x8784)))))))))))
(assert
 (let (($x6466 (= cell_9_5 2)))
 (let (($x6200 (= cell_9_5 1)))
 (or $x6200 $x6466 (= cell_9_5 3) (= cell_9_5 4) (= cell_9_5 5) (= cell_9_5 6) (= cell_9_5 7) (= cell_9_5 8) (= cell_9_5 9)))))
(assert
 (let (($x5425 (= cell_1_6 9)))
 (let (($x6124 (= cell_1_6 8)))
 (let (($x414 (= cell_1_6 7)))
 (let (($x2691 (= cell_1_6 6)))
 (let (($x926 (= cell_1_6 5)))
 (let (($x6407 (= cell_1_6 4)))
 (let (($x3765 (= cell_1_6 3)))
 (let (($x4208 (= cell_1_6 2)))
 (let (($x7230 (= cell_1_6 1)))
 (or $x7230 $x4208 $x3765 $x6407 $x926 $x2691 $x414 $x6124 $x5425)))))))))))
(assert
 (let (($x1880 (= cell_2_6 9)))
 (let (($x4724 (= cell_2_6 8)))
 (let (($x10111 (= cell_2_6 7)))
 (let (($x1348 (= cell_2_6 6)))
 (let (($x2509 (= cell_2_6 5)))
 (let (($x5261 (= cell_2_6 4)))
 (let (($x5192 (= cell_2_6 3)))
 (let (($x8626 (= cell_2_6 2)))
 (let (($x9304 (= cell_2_6 1)))
 (or $x9304 $x8626 $x5192 $x5261 $x2509 $x1348 $x10111 $x4724 $x1880)))))))))))
(assert
 (let (($x3464 (= cell_3_6 9)))
 (let (($x6608 (= cell_3_6 8)))
 (let (($x9052 (= cell_3_6 7)))
 (let (($x6138 (= cell_3_6 6)))
 (let (($x121 (= cell_3_6 5)))
 (let (($x4495 (= cell_3_6 4)))
 (let (($x811 (= cell_3_6 3)))
 (let (($x5145 (= cell_3_6 2)))
 (let (($x1272 (= cell_3_6 1)))
 (or $x1272 $x5145 $x811 $x4495 $x121 $x6138 $x9052 $x6608 $x3464)))))))))))
(assert
 (let (($x350 (= cell_4_6 1)))
 (or $x350 (= cell_4_6 2) (= cell_4_6 3) (= cell_4_6 4) (= cell_4_6 5) (= cell_4_6 6) (= cell_4_6 7) (= cell_4_6 8) (= cell_4_6 9))))
(assert
 (let (($x4620 (= cell_5_6 9)))
 (let (($x6446 (= cell_5_6 8)))
 (let (($x1934 (= cell_5_6 7)))
 (let (($x9850 (= cell_5_6 6)))
 (let (($x5601 (= cell_5_6 5)))
 (let (($x3103 (= cell_5_6 4)))
 (let (($x4102 (= cell_5_6 3)))
 (let (($x399 (= cell_5_6 2)))
 (let (($x8511 (= cell_5_6 1)))
 (or $x8511 $x399 $x4102 $x3103 $x5601 $x9850 $x1934 $x6446 $x4620)))))))))))
(assert
 (let (($x8074 (= cell_6_6 1)))
 (or $x8074 (= cell_6_6 2) (= cell_6_6 3) (= cell_6_6 4) (= cell_6_6 5) (= cell_6_6 6) (= cell_6_6 7) (= cell_6_6 8) (= cell_6_6 9))))
(assert
 (let (($x8545 (= cell_7_6 1)))
 (or $x8545 (= cell_7_6 2) (= cell_7_6 3) (= cell_7_6 4) (= cell_7_6 5) (= cell_7_6 6) (= cell_7_6 7) (= cell_7_6 8) (= cell_7_6 9))))
(assert
 (let (($x5364 (= cell_8_6 9)))
 (let (($x3614 (= cell_8_6 8)))
 (let (($x9012 (= cell_8_6 7)))
 (let (($x4413 (= cell_8_6 6)))
 (let (($x299 (= cell_8_6 5)))
 (let (($x7017 (= cell_8_6 4)))
 (let (($x9385 (= cell_8_6 3)))
 (let (($x7050 (= cell_8_6 2)))
 (let (($x6257 (= cell_8_6 1)))
 (or $x6257 $x7050 $x9385 $x7017 $x299 $x4413 $x9012 $x3614 $x5364)))))))))))
(assert
 (let (($x2526 (= cell_9_6 1)))
 (or $x2526 (= cell_9_6 2) (= cell_9_6 3) (= cell_9_6 4) (= cell_9_6 5) (= cell_9_6 6) (= cell_9_6 7) (= cell_9_6 8) (= cell_9_6 9))))
(assert
 (let (($x2106 (= cell_1_7 9)))
 (let (($x8766 (= cell_1_7 8)))
 (let (($x3087 (= cell_1_7 7)))
 (let (($x9399 (= cell_1_7 6)))
 (let (($x2200 (= cell_1_7 5)))
 (let (($x4149 (= cell_1_7 4)))
 (let (($x8823 (= cell_1_7 3)))
 (let (($x3439 (= cell_1_7 2)))
 (let (($x2592 (= cell_1_7 1)))
 (or $x2592 $x3439 $x8823 $x4149 $x2200 $x9399 $x3087 $x8766 $x2106)))))))))))
(assert
 (let (($x8789 (= cell_2_7 9)))
 (let (($x5982 (= cell_2_7 8)))
 (let (($x5878 (= cell_2_7 7)))
 (let (($x5409 (= cell_2_7 6)))
 (let (($x6303 (= cell_2_7 5)))
 (let (($x3303 (= cell_2_7 4)))
 (let (($x9947 (= cell_2_7 3)))
 (let (($x4824 (= cell_2_7 2)))
 (let (($x9667 (= cell_2_7 1)))
 (or $x9667 $x4824 $x9947 $x3303 $x6303 $x5409 $x5878 $x5982 $x8789)))))))))))
(assert
 (let (($x3665 (= cell_3_7 1)))
 (or $x3665 (= cell_3_7 2) (= cell_3_7 3) (= cell_3_7 4) (= cell_3_7 5) (= cell_3_7 6) (= cell_3_7 7) (= cell_3_7 8) (= cell_3_7 9))))
(assert
 (let (($x8660 (= cell_4_7 9)))
 (let (($x3317 (= cell_4_7 8)))
 (let (($x5321 (= cell_4_7 7)))
 (let (($x10106 (= cell_4_7 6)))
 (let (($x8190 (= cell_4_7 5)))
 (let (($x3222 (= cell_4_7 4)))
 (let (($x8633 (= cell_4_7 3)))
 (let (($x3325 (= cell_4_7 2)))
 (let (($x401 (= cell_4_7 1)))
 (or $x401 $x3325 $x8633 $x3222 $x8190 $x10106 $x5321 $x3317 $x8660)))))))))))
(assert
 (let (($x5336 (= cell_5_7 9)))
 (let (($x1717 (= cell_5_7 8)))
 (let (($x2850 (= cell_5_7 7)))
 (let (($x1479 (= cell_5_7 6)))
 (let (($x722 (= cell_5_7 5)))
 (let (($x7548 (= cell_5_7 4)))
 (let (($x7058 (= cell_5_7 3)))
 (let (($x2663 (= cell_5_7 2)))
 (let (($x8366 (= cell_5_7 1)))
 (or $x8366 $x2663 $x7058 $x7548 $x722 $x1479 $x2850 $x1717 $x5336)))))))))))
(assert
 (let (($x8008 (= cell_6_7 1)))
 (or $x8008 (= cell_6_7 2) (= cell_6_7 3) (= cell_6_7 4) (= cell_6_7 5) (= cell_6_7 6) (= cell_6_7 7) (= cell_6_7 8) (= cell_6_7 9))))
(assert
 (let (($x533 (= cell_7_7 9)))
 (let (($x2723 (= cell_7_7 8)))
 (let (($x6691 (= cell_7_7 7)))
 (let (($x6003 (= cell_7_7 6)))
 (let (($x3868 (= cell_7_7 5)))
 (let (($x393 (= cell_7_7 4)))
 (let (($x6824 (= cell_7_7 3)))
 (let (($x1385 (= cell_7_7 2)))
 (let (($x1213 (= cell_7_7 1)))
 (or $x1213 $x1385 $x6824 $x393 $x3868 $x6003 $x6691 $x2723 $x533)))))))))))
(assert
 (let (($x1990 (= cell_8_7 9)))
 (let (($x7603 (= cell_8_7 8)))
 (let (($x536 (= cell_8_7 7)))
 (let (($x5879 (= cell_8_7 6)))
 (let (($x618 (= cell_8_7 5)))
 (let (($x5473 (= cell_8_7 4)))
 (let (($x3624 (= cell_8_7 3)))
 (let (($x9835 (= cell_8_7 2)))
 (let (($x1665 (= cell_8_7 1)))
 (or $x1665 $x9835 $x3624 $x5473 $x618 $x5879 $x536 $x7603 $x1990)))))))))))
(assert
 (let (($x1814 (= cell_9_7 1)))
 (or $x1814 (= cell_9_7 2) (= cell_9_7 3) (= cell_9_7 4) (= cell_9_7 5) (= cell_9_7 6) (= cell_9_7 7) (= cell_9_7 8) (= cell_9_7 9))))
(assert
 (let (($x2319 (= cell_1_8 9)))
 (let (($x3194 (= cell_1_8 8)))
 (let (($x7881 (= cell_1_8 7)))
 (let (($x9714 (= cell_1_8 6)))
 (let (($x1877 (= cell_1_8 5)))
 (let (($x9055 (= cell_1_8 4)))
 (let (($x6576 (= cell_1_8 3)))
 (let (($x3414 (= cell_1_8 2)))
 (let (($x10022 (= cell_1_8 1)))
 (or $x10022 $x3414 $x6576 $x9055 $x1877 $x9714 $x7881 $x3194 $x2319)))))))))))
(assert
 (let (($x4928 (= cell_2_8 9)))
 (let (($x8717 (= cell_2_8 8)))
 (let (($x8385 (= cell_2_8 7)))
 (let (($x4021 (= cell_2_8 6)))
 (let (($x8099 (= cell_2_8 5)))
 (let (($x3349 (= cell_2_8 4)))
 (let (($x7573 (= cell_2_8 3)))
 (let (($x8904 (= cell_2_8 2)))
 (let (($x1970 (= cell_2_8 1)))
 (or $x1970 $x8904 $x7573 $x3349 $x8099 $x4021 $x8385 $x8717 $x4928)))))))))))
(assert
 (let (($x4585 (= cell_3_8 2)))
 (or (= cell_3_8 1) $x4585 (= cell_3_8 3) (= cell_3_8 4) (= cell_3_8 5) (= cell_3_8 6) (= cell_3_8 7) (= cell_3_8 8) (= cell_3_8 9))))
(assert
 (let (($x9299 (= cell_4_8 9)))
 (let (($x2989 (= cell_4_8 8)))
 (let (($x1861 (= cell_4_8 7)))
 (let (($x6469 (= cell_4_8 6)))
 (let (($x603 (= cell_4_8 5)))
 (let (($x8573 (= cell_4_8 4)))
 (let (($x9687 (= cell_4_8 3)))
 (let (($x1548 (= cell_4_8 2)))
 (let (($x7774 (= cell_4_8 1)))
 (or $x7774 $x1548 $x9687 $x8573 $x603 $x6469 $x1861 $x2989 $x9299)))))))))))
(assert
 (let (($x7004 (= cell_5_8 9)))
 (let (($x6722 (= cell_5_8 8)))
 (let (($x1057 (= cell_5_8 7)))
 (let (($x6153 (= cell_5_8 6)))
 (let (($x1323 (= cell_5_8 5)))
 (let (($x8274 (= cell_5_8 4)))
 (let (($x10021 (= cell_5_8 3)))
 (let (($x6451 (= cell_5_8 2)))
 (let (($x8767 (= cell_5_8 1)))
 (or $x8767 $x6451 $x10021 $x8274 $x1323 $x6153 $x1057 $x6722 $x7004)))))))))))
(assert
 (let (($x9802 (= cell_6_8 9)))
 (let (($x2999 (= cell_6_8 8)))
 (let (($x1983 (= cell_6_8 7)))
 (let (($x4250 (= cell_6_8 6)))
 (let (($x5329 (= cell_6_8 5)))
 (let (($x784 (= cell_6_8 4)))
 (let (($x2910 (= cell_6_8 3)))
 (let (($x1688 (= cell_6_8 2)))
 (let (($x4622 (= cell_6_8 1)))
 (or $x4622 $x1688 $x2910 $x784 $x5329 $x4250 $x1983 $x2999 $x9802)))))))))))
(assert
 (let (($x3173 (= cell_7_8 9)))
 (let (($x787 (= cell_7_8 8)))
 (let (($x8367 (= cell_7_8 7)))
 (let (($x956 (= cell_7_8 6)))
 (let (($x7701 (= cell_7_8 5)))
 (let (($x7248 (= cell_7_8 4)))
 (let (($x3823 (= cell_7_8 3)))
 (let (($x9066 (= cell_7_8 2)))
 (let (($x7459 (= cell_7_8 1)))
 (or $x7459 $x9066 $x3823 $x7248 $x7701 $x956 $x8367 $x787 $x3173)))))))))))
(assert
 (let (($x9021 (= cell_8_8 1)))
 (or $x9021 (= cell_8_8 2) (= cell_8_8 3) (= cell_8_8 4) (= cell_8_8 5) (= cell_8_8 6) (= cell_8_8 7) (= cell_8_8 8) (= cell_8_8 9))))
(assert
 (let (($x3133 (= cell_9_8 2)))
 (let (($x8732 (= cell_9_8 1)))
 (or $x8732 $x3133 (= cell_9_8 3) (= cell_9_8 4) (= cell_9_8 5) (= cell_9_8 6) (= cell_9_8 7) (= cell_9_8 8) (= cell_9_8 9)))))
(assert
 (let (($x8361 (= cell_1_9 9)))
 (let (($x1085 (= cell_1_9 8)))
 (let (($x9842 (= cell_1_9 7)))
 (let (($x7588 (= cell_1_9 6)))
 (let (($x7914 (= cell_1_9 5)))
 (let (($x2833 (= cell_1_9 4)))
 (let (($x4418 (= cell_1_9 3)))
 (let (($x8488 (= cell_1_9 2)))
 (let (($x1610 (= cell_1_9 1)))
 (or $x1610 $x8488 $x4418 $x2833 $x7914 $x7588 $x9842 $x1085 $x8361)))))))))))
(assert
 (let (($x3351 (= cell_2_9 9)))
 (let (($x757 (= cell_2_9 8)))
 (let (($x1294 (= cell_2_9 7)))
 (let (($x2516 (= cell_2_9 6)))
 (let (($x2310 (= cell_2_9 5)))
 (let (($x2559 (= cell_2_9 4)))
 (let (($x88 (= cell_2_9 3)))
 (let (($x5543 (= cell_2_9 2)))
 (let (($x3914 (= cell_2_9 1)))
 (or $x3914 $x5543 $x88 $x2559 $x2310 $x2516 $x1294 $x757 $x3351)))))))))))
(assert
 (let (($x4194 (= cell_3_9 9)))
 (let (($x7361 (= cell_3_9 8)))
 (let (($x10211 (= cell_3_9 7)))
 (let (($x10203 (= cell_3_9 6)))
 (let (($x9775 (= cell_3_9 5)))
 (let (($x7121 (= cell_3_9 4)))
 (let (($x5147 (= cell_3_9 3)))
 (let (($x4134 (= cell_3_9 2)))
 (let (($x6925 (= cell_3_9 1)))
 (or $x6925 $x4134 $x5147 $x7121 $x9775 $x10203 $x10211 $x7361 $x4194)))))))))))
(assert
 (let (($x8596 (= cell_4_9 9)))
 (let (($x10217 (= cell_4_9 8)))
 (let (($x8671 (= cell_4_9 7)))
 (let (($x4999 (= cell_4_9 6)))
 (let (($x9661 (= cell_4_9 5)))
 (let (($x9969 (= cell_4_9 4)))
 (let (($x8494 (= cell_4_9 3)))
 (let (($x6986 (= cell_4_9 2)))
 (let (($x4606 (= cell_4_9 1)))
 (or $x4606 $x6986 $x8494 $x9969 $x9661 $x4999 $x8671 $x10217 $x8596)))))))))))
(assert
 (let (($x7306 (= cell_5_9 1)))
 (or $x7306 (= cell_5_9 2) (= cell_5_9 3) (= cell_5_9 4) (= cell_5_9 5) (= cell_5_9 6) (= cell_5_9 7) (= cell_5_9 8) (= cell_5_9 9))))
(assert
 (let (($x8913 (= cell_6_9 1)))
 (or $x8913 (= cell_6_9 2) (= cell_6_9 3) (= cell_6_9 4) (= cell_6_9 5) (= cell_6_9 6) (= cell_6_9 7) (= cell_6_9 8) (= cell_6_9 9))))
(assert
 (let (($x2080 (= cell_7_9 9)))
 (let (($x9929 (= cell_7_9 8)))
 (let (($x7027 (= cell_7_9 7)))
 (let (($x9586 (= cell_7_9 6)))
 (let (($x4992 (= cell_7_9 5)))
 (let (($x1819 (= cell_7_9 4)))
 (let (($x7846 (= cell_7_9 3)))
 (let (($x8930 (= cell_7_9 2)))
 (let (($x1799 (= cell_7_9 1)))
 (or $x1799 $x8930 $x7846 $x1819 $x4992 $x9586 $x7027 $x9929 $x2080)))))))))))
(assert
 (let (($x1205 (= cell_8_9 1)))
 (or $x1205 (= cell_8_9 2) (= cell_8_9 3) (= cell_8_9 4) (= cell_8_9 5) (= cell_8_9 6) (= cell_8_9 7) (= cell_8_9 8) (= cell_8_9 9))))
(assert
 (let (($x4836 (= cell_9_9 1)))
 (or $x4836 (= cell_9_9 2) (= cell_9_9 3) (= cell_9_9 4) (= cell_9_9 5) (= cell_9_9 6) (= cell_9_9 7) (= cell_9_9 8) (= cell_9_9 9))))
(assert
 (and (distinct cell_1_1 cell_1_2 cell_1_3 cell_1_4 cell_1_5 cell_1_6 cell_1_7 cell_1_8 cell_1_9) true))
(assert
 (and (distinct cell_2_1 cell_2_2 cell_2_3 cell_2_4 cell_2_5 cell_2_6 cell_2_7 cell_2_8 cell_2_9) true))
(assert
 (and (distinct cell_3_1 cell_3_2 cell_3_3 cell_3_4 cell_3_5 cell_3_6 cell_3_7 cell_3_8 cell_3_9) true))
(assert
 (and (distinct cell_4_1 cell_4_2 cell_4_3 cell_4_4 cell_4_5 cell_4_6 cell_4_7 cell_4_8 cell_4_9) true))
(assert
 (and (distinct cell_5_1 cell_5_2 cell_5_3 cell_5_4 cell_5_5 cell_5_6 cell_5_7 cell_5_8 cell_5_9) true))
(assert
 (and (distinct cell_6_1 cell_6_2 cell_6_3 cell_6_4 cell_6_5 cell_6_6 cell_6_7 cell_6_8 cell_6_9) true))
(assert
 (and (distinct cell_7_1 cell_7_2 cell_7_3 cell_7_4 cell_7_5 cell_7_6 cell_7_7 cell_7_8 cell_7_9) true))
(assert
 (and (distinct cell_8_1 cell_8_2 cell_8_3 cell_8_4 cell_8_5 cell_8_6 cell_8_7 cell_8_8 cell_8_9) true))
(assert
 (and (distinct cell_9_1 cell_9_2 cell_9_3 cell_9_4 cell_9_5 cell_9_6 cell_9_7 cell_9_8 cell_9_9) true))
(assert
 (and (distinct cell_1_1 cell_2_1 cell_3_1 cell_4_1 cell_5_1 cell_6_1 cell_7_1 cell_8_1 cell_9_1) true))
(assert
 (and (distinct cell_1_2 cell_2_2 cell_3_2 cell_4_2 cell_5_2 cell_6_2 cell_7_2 cell_8_2 cell_9_2) true))
(assert
 (and (distinct cell_1_3 cell_2_3 cell_3_3 cell_4_3 cell_5_3 cell_6_3 cell_7_3 cell_8_3 cell_9_3) true))
(assert
 (and (distinct cell_1_4 cell_2_4 cell_3_4 cell_4_4 cell_5_4 cell_6_4 cell_7_4 cell_8_4 cell_9_4) true))
(assert
 (and (distinct cell_1_5 cell_2_5 cell_3_5 cell_4_5 cell_5_5 cell_6_5 cell_7_5 cell_8_5 cell_9_5) true))
(assert
 (and (distinct cell_1_6 cell_2_6 cell_3_6 cell_4_6 cell_5_6 cell_6_6 cell_7_6 cell_8_6 cell_9_6) true))
(assert
 (and (distinct cell_1_7 cell_2_7 cell_3_7 cell_4_7 cell_5_7 cell_6_7 cell_7_7 cell_8_7 cell_9_7) true))
(assert
 (and (distinct cell_1_8 cell_2_8 cell_3_8 cell_4_8 cell_5_8 cell_6_8 cell_7_8 cell_8_8 cell_9_8) true))
(assert
 (and (distinct cell_1_9 cell_2_9 cell_3_9 cell_4_9 cell_5_9 cell_6_9 cell_7_9 cell_8_9 cell_9_9) true))
(assert
 (and (distinct cell_1_1 cell_1_2 cell_1_3 cell_2_1 cell_2_2 cell_2_3 cell_3_1 cell_3_2 cell_3_3) true))
(assert
 (and (distinct cell_1_4 cell_1_5 cell_1_6 cell_2_4 cell_2_5 cell_2_6 cell_3_4 cell_3_5 cell_3_6) true))
(assert
 (and (distinct cell_1_7 cell_1_8 cell_1_9 cell_2_7 cell_2_8 cell_2_9 cell_3_7 cell_3_8 cell_3_9) true))
(assert
 (and (distinct cell_4_1 cell_4_2 cell_4_3 cell_5_1 cell_5_2 cell_5_3 cell_6_1 cell_6_2 cell_6_3) true))
(assert
 (and (distinct cell_4_4 cell_4_5 cell_4_6 cell_5_4 cell_5_5 cell_5_6 cell_6_4 cell_6_5 cell_6_6) true))
(assert
 (and (distinct cell_4_7 cell_4_8 cell_4_9 cell_5_7 cell_5_8 cell_5_9 cell_6_7 cell_6_8 cell_6_9) true))
(assert
 (and (distinct cell_7_1 cell_7_2 cell_7_3 cell_8_1 cell_8_2 cell_8_3 cell_9_1 cell_9_2 cell_9_3) true))
(assert
 (and (distinct cell_7_4 cell_7_5 cell_7_6 cell_8_4 cell_8_5 cell_8_6 cell_9_4 cell_9_5 cell_9_6) true))
(assert
 (and (distinct cell_7_7 cell_7_8 cell_7_9 cell_8_7 cell_8_8 cell_8_9 cell_9_7 cell_9_8 cell_9_9) true))
(assert
 (let (($x3506 (and (distinct cell_5_9 cell_6_8 cell_7_7 cell_8_6) true)))
 (let (($x2687 (and (distinct cell_2_9 cell_3_8 cell_4_7 cell_5_6 cell_6_5 cell_7_4 cell_8_3 cell_9_2) true)))
 (let (($x709 (and (distinct cell_1_8 cell_2_7 cell_3_6 cell_4_5 cell_5_4 cell_6_3 cell_7_2 cell_8_1) true)))
 (let (($x2987 (and (distinct cell_1_5 cell_2_4 cell_3_3 cell_4_2) true)))
 (let (($x5401 (and (distinct cell_5_1 cell_6_2 cell_7_3 cell_8_4) true)))
 (let (($x10130 (and (distinct cell_2_1 cell_3_2 cell_4_3 cell_5_4 cell_6_5 cell_7_6 cell_8_7 cell_9_8) true)))
 (let (($x8048 (and (distinct cell_1_2 cell_2_3 cell_3_4 cell_4_5 cell_5_6 cell_6_7 cell_7_8 cell_8_9) true)))
 (let (($x9656 (and (distinct cell_1_5 cell_2_6 cell_3_7 cell_4_8) true)))
 (and $x9656 $x8048 $x10130 $x5401 $x2987 $x709 $x2687 $x3506))))))))))
(assert
 (and (distinct cell_4_4 2) true))
(check-sat)
